
Gurobi 9.1.2 (linux64) logging started Wed Aug  9 20:40:03 2023

Changed value of parameter LogFile to max-ls_r=('1', '6').log
   Prev:   Default: 
Changed value of parameter MIPFocus to 1
   Prev: 0  Min: 0  Max: 3  Default: 0
Changed value of parameter Threads to 32
   Prev: 0  Min: 0  Max: 1024  Default: 0
Changed value of parameter TimeLimit to 3600.0
   Prev: inf  Min: 0.0  Max: inf  Default: inf
Warning: variable name "X[('6', '6'),('7', '6')]" has a space
Warning: constraint name "flow-constr-t0-v('6', '3')" has a space
Warning: to let Gurobi read it back, use rlp format
Gurobi Optimizer version 9.1.2 build v9.1.2rc0 (linux64)
Thread count: 16 physical cores, 32 logical processors, using up to 32 threads
Optimize a model with 2947 rows, 2688 columns and 10296 nonzeros
Model fingerprint: 0xd313786e
Variable types: 256 continuous, 2432 integer (2432 binary)
Coefficient statistics:
  Matrix range     [1e+00, 7e+04]
  Objective range  [2e-01, 2e-01]
  Bounds range     [1e+00, 3e+04]
  RHS range        [1e+00, 7e+04]
Presolve removed 295 rows and 296 columns
Presolve time: 0.05s
Presolved: 2652 rows, 2392 columns, 18105 nonzeros
Variable types: 256 continuous, 2136 integer (2136 binary)

Root relaxation: objective 6.400000e+01, 153 iterations, 0.00 seconds

    Nodes    |    Current Node    |     Objective Bounds      |     Work
 Expl Unexpl |  Obj  Depth IntInf | Incumbent    BestBd   Gap | It/Node Time

     0     0   64.00000    0   22          -   64.00000      -     -    0s
H    0     0                     139.5000000   64.00000  54.1%     -    0s
H    0     0                     139.0000000   64.00000  54.0%     -    0s
     0     0   64.00000    0   42  139.00000   64.00000  54.0%     -    0s
H    0     0                     104.1500000   64.00000  38.6%     -    0s
     0     0   64.00000    0   44  104.15000   64.00000  38.6%     -    0s
H    0     0                     103.5000000   64.00000  38.2%     -    0s
     0     0   64.00000    0   28  103.50000   64.00000  38.2%     -    0s
H    0     0                     101.5000000   64.00000  36.9%     -    0s
     0     0   64.00000    0   28  101.50000   64.00000  36.9%     -    0s
     0     0   64.00000    0   26  101.50000   64.00000  36.9%     -    0s
H    0     0                      90.1250000   64.00000  29.0%     -    0s
H    0     0                      78.5000000   64.00000  18.5%     -    0s
     0     0   64.00000    0   44   78.50000   64.00000  18.5%     -    0s
H    0     0                      78.0000000   64.00000  17.9%     -    0s
     0     0   64.00000    0   40   78.00000   64.00000  17.9%     -    0s
H    0     0                      77.2500000   64.00000  17.2%     -    0s
     0     0   64.00000    0   46   77.25000   64.00000  17.2%     -    0s
     0     0   64.00000    0    8   77.25000   64.00000  17.2%     -    0s
H    0     0                      75.7500000   64.00000  15.5%     -    1s
H    0     0                      73.0625000   64.00000  12.4%     -    1s
H    0     2                      69.7500000   64.00000  8.24%     -    1s
     0     2   64.00000    0    8   69.75000   64.00000  8.24%     -    1s
H   32    60                      69.2500000   64.00000  7.58%   8.8    2s
H   39    60                      69.0833333   64.00000  7.36%   7.6    2s
H   40    60                      69.0000000   64.00000  7.25%   7.4    2s
H   42    60                      68.6500000   64.00000  6.77%   7.3    2s
H   60    60                      68.2500000   64.00000  6.23%   8.5    2s
H   93   124                      67.0000000   64.00000  4.48%   6.6    3s
H  115   124                      66.7500000   64.00000  4.12%   5.7    3s
H  125   156                      66.5000000   64.00000  3.76%   5.4    4s
H  134   156                      66.2500000   64.00000  3.40%   5.2    4s
H  189   220                      65.0000000   64.00000  1.54%   4.3    6s
H  207   220                      64.5000000   64.00000  0.78%  33.9    6s
H  222   252                      64.2500000   64.00000  0.39%  54.7    7s
H  223   252                      64.0000000   64.00000  0.00%  54.4    7s

Cutting planes:
  Cover: 7
  Implied bound: 16
  Clique: 5
  MIR: 3
  Flow cover: 11
  RLT: 4
  Relax-and-lift: 6

Explored 253 nodes (17449 simplex iterations) in 7.77 seconds
Thread count was 32 (of 32 available processors)

Solution count 10: 64 64.25 64.5 ... 68.65

Optimal solution found (tolerance 1.00e-04)
Best objective 6.400000000000e+01, best bound 6.400000000000e+01, gap 0.0000%
